p cnf 22 9
e 1 0
a 2 0
e 3 0
a 4 0
e 5 0
a 6 0
e 7 0
a 8 0
e 9 0
a 10 11 0
e 12 13 0
a 14 0
e 15 16 17 0
a 18 19 20 0
e 21 0
a 22 0
-1 -5 7 -10 0
-17 -2 -21 -13 -22 0
-8 -5 -22 -9 -7 0
15 -12 -19 9 22 0
-4 20 16 18 0
4 10 1 -5 0
15 -8 -21 1 0
-11 14 3 7 0
8 19 3 0
